518,86
737,51
681,16
464,-21
518,86
468,298
453,332
504,378
596,433
801,776
745,605
699,524
738,424
690,378
600,566
681,736
745,605
1051,526
1117,89
751,309
695,318
742,21
801,36
681,16
787,352
829,429
698,382
596,433
575,352
504,378
196,563
787,352
829,429
1045,670
1071,406
801,36
972,195
1055,216
464,-21
